p cnf 7230 17
-3592 -4160 -5252 5253 0
5252 -5254 0
-4156 -4158 -4782 5248 0
4158 -5248 0
4782 -5248 0
3592 -5254 0
-5253 5254 0
5249 5250 0
4796 -5250 0
-4796 -5249 0
4160 -5254 0
5251 5252 0
4798 -5252 0
-4798 -5251 0
4794 -5256 0
-5247 5248 0
5247 -5248 0
